certificates/rado_a10_c132_N19.cnf
c Rad2 upper bound instance: x1 + 10*x2 - x3 = 132, interval [1,19]
p cnf 19 72
1 9 14 0
-1 -9 -14 0
1 15 19 0
-1 -15 -19 0
2 10 14 0
-2 -10 -14 0
1 3 13 0
-1 -3 -13 0
3 11 14 0
-3 -11 -14 0
2 4 13 0
-2 -4 -13 0
4 12 14 0
-4 -12 -14 0
3 5 13 0
-3 -5 -13 0
5 13 14 0
-5 -13 -14 0
4 6 13 0
-4 -6 -13 0
6 14 0
-6 -14 0
5 7 13 0
-5 -7 -13 0
7 14 15 0
-7 -14 -15 0
6 8 13 0
-6 -8 -13 0
8 14 16 0
-8 -14 -16 0
7 9 13 0
-7 -9 -13 0
9 14 17 0
-9 -14 -17 0
8 10 13 0
-8 -10 -13 0
10 14 18 0
-10 -14 -18 0
9 11 13 0
-9 -11 -13 0
11 14 19 0
-11 -14 -19 0
10 12 13 0
-10 -12 -13 0
1 12 13 0
-1 -12 -13 0
11 13 0
-11 -13 0
2 12 14 0
-2 -12 -14 0
12 13 14 0
-12 -13 -14 0
3 12 15 0
-3 -12 -15 0
13 15 0
-13 -15 0
4 12 16 0
-4 -12 -16 0
13 14 16 0
-13 -14 -16 0
5 12 17 0
-5 -12 -17 0
13 15 17 0
-13 -15 -17 0
6 12 18 0
-6 -12 -18 0
13 16 18 0
-13 -16 -18 0
7 12 19 0
-7 -12 -19 0
13 17 19 0
-13 -17 -19 0
