certificates/rado_a10_c132_N19.drat
13 -18 -19 0
14 16 -13 0
-18 -19 0
d 13 -18 -19 0
-14 -19 0
-13 -19 0
-19 0
14 0
-6 0
13 0
-11 0
-15 0
-16 0
-5 0
-12 0
1 0
3 0
4 0
17 0
18 0
7 0
0
